2A/RO/TP1/Ex1.sol
Problem:    
Rows:       3
Columns:    2 (2 integer, 0 binary)
Non-zeros:  5
Status:     INTEGER OPTIMAL
Objective:  MargeTotale = 9800000 (MAXimum)

   No.   Row name        Activity     Lower bound   Upper bound
------ ------------    ------------- ------------- -------------
     1 MaxProdLuxe                 8                           8 
     2 MaxSurfaceParking
                                 120                         150 
     3 TempsMax                   58                          60 

   No. Column name       Activity     Lower bound   Upper bound
------ ------------    ------------- ------------- -------------
     1 L            *              8             0               
     2 S            *              2             0               

Integer feasibility conditions:

KKT.PE: max.abs.err = 0.00e+00 on row 0
        max.rel.err = 0.00e+00 on row 0
        High quality

KKT.PB: max.abs.err = 0.00e+00 on row 0
        max.rel.err = 0.00e+00 on row 0
        High quality

End of output
